DIMACS/bio-CE-LC.txt
p edge 1388 1648
e 1 2
e 1 3
e 1 4
e 1 5
e 1 6
e 1 7
e 1 8
e 9 10
e 11 12
e 11 13
e 14 15
e 16 17
e 18 19
e 20 21
e 20 22
e 20 23
e 20 24
e 25 26
e 25 27
e 25 28
e 25 29
e 30 31
e 30 32
e 30 33
e 30 34
e 30 35
e 30 36
e 30 37
e 30 38
e 30 39
e 30 40
e 30 41
e 30 42
e 30 43
e 23 30
e 30 44
e 30 45
e 30 46
e 30 47
e 30 48
e 30 49
e 50 51
e 50 52
e 50 53
e 54 55
e 54 56
e 54 57
e 54 58
e 54 59
e 54 60
e 61 62
e 12 63
e 64 65
e 17 66
e 67 68
e 69 70
e 71 72
e 73 74
e 73 75
e 73 76
e 73 77
e 31 78
e 32 79
e 32 80
e 32 81
e 82 83
e 82 84
e 82 85
e 82 86
e 82 87
e 82 88
e 82 89
e 82 90
e 15 91
e 15 92
e 93 94
e 95 96
e 97 98
e 99 100
e 15 101
e 102 103
e 102 104
e 102 105
e 102 106
e 107 108
e 109 110
e 15 111
e 112 113
e 112 114
e 115 116
e 115 117
e 115 118
e 117 119
e 120 121
e 122 123
e 124 125
e 103 126
e 103 106
e 103 127
e 28 103
e 128 129
e 130 131
e 132 133
e 132 134
e 132 135
e 132 136
e 132 137
e 132 138
e 139 140
e 141 142
e 96 143
e 144 145
e 144 146
e 144 147
e 144 148
e 144 149
e 144 150
e 144 151
e 152 153
e 154 155
e 125 154
e 154 156
e 154 157
e 158 159
e 160 161
e 160 162
e 160 163
e 164 165
e 53 164
e 166 167
e 166 168
e 166 169
e 166 170
e 166 171
e 166 172
e 166 173
e 166 174
e 166 175
e 166 176
e 177 178
e 177 179
e 142 177
e 180 181
e 180 182
e 180 183
e 81 180
e 180 184
e 180 185
e 3 186
e 125 187
e 188 189
e 190 191
e 4 192
e 193 194
e 193 195
e 193 196
e 117 197
e 198 199
e 200 201
e 202 203
e 202 204
e 15 205
e 125 206
e 155 207
e 15 208
e 89 209
e 62 210
e 210 211
e 201 212
e 51 213
e 51 214
e 51 215
e 51 216
e 51 217
e 51 218
e 51 219
e 51 220
e 51 221
e 51 222
e 51 223
e 51 224
e 51 225
e 51 52
e 51 226
e 4 96
e 4 218
e 4 227
e 4 228
e 4 229
e 4 230
e 4 231
e 4 232
e 4 186
e 4 8
e 4 233
e 15 234
e 235 236
e 235 237
e 235 238
e 235 239
e 235 240
e 235 241
e 235 242
e 125 243
e 243 244
e 123 245
e 246 247
e 181 248
e 249 250
e 68 251
e 68 252
e 253 254
e 253 255
e 253 256
e 89 257
e 123 257
e 191 258
e 123 258
e 259 260
e 191 259
e 259 261
e 55 262
e 250 263
e 264 265
e 89 266
e 156 266
e 123 266
e 267 268
e 267 269
e 270 271
e 203 254
e 254 272
e 254 273
e 254 255
e 230 254
e 254 274
e 254 275
e 254 276
e 277 278
e 138 279
e 279 280
e 281 282
e 123 283
e 284 285
e 77 286
e 70 287
e 288 289
e 15 290
e 291 292
e 293 294
e 156 293
e 123 293
e 295 296
e 295 297
e 298 299
e 22 300
e 300 301
e 300 302
e 147 303
e 303 304
e 303 305
e 303 306
e 303 307
e 303 308
e 309 310
e 311 312
e 313 314
e 313 315
e 316 317
e 156 316
e 316 318
e 316 319
e 165 320
e 320 321
e 191 322
e 323 324
e 323 325
e 123 326
e 327 328
e 17 329
e 330 331
e 330 332
e 330 333
e 330 334
e 330 335
e 330 336
e 330 337
e 330 338
e 17 339
e 15 340
e 15 341
e 260 342
e 342 343
e 344 345
e 346 347
e 125 348
e 56 349
e 186 350
e 351 352
e 353 354
e 133 355
e 133 137
e 356 357
e 137 356
e 248 358
e 358 359
e 358 360
e 358 361
e 358 362
e 358 363
e 24 358
e 364 365
e 17 364
e 117 366
e 17 367
e 148 368
e 151 368
e 117 369
e 239 370
e 15 371
e 123 372
e 142 373
e 12 374
e 70 375
e 15 376
e 129 377
e 153 378
e 379 380
e 250 379
e 118 379
e 381 382
e 117 383
e 384 385
e 386 387
e 186 388
e 365 389
e 365 390
e 365 391
e 365 392
e 365 393
e 365 394
e 365 395
e 365 396
e 397 398
e 399 400
e 15 401
e 269 402
e 403 404
e 403 405
e 403 406
e 403 407
e 354 408
e 354 409
e 354 410
e 354 411
e 17 412
e 79 413
e 80 413
e 62 414
e 211 414
e 415 416
e 415 417
e 415 418
e 415 419
e 415 420
e 421 422
e 140 423
e 424 425
e 424 426
e 285 427
e 199 428
e 199 429
e 199 430
e 199 431
e 199 432
e 433 434
e 62 435
e 211 435
e 435 436
e 17 437
e 438 439
e 314 389
e 440 441
e 442 443
e 442 444
e 203 445
e 203 446
e 203 447
e 203 448
e 250 449
e 12 450
e 451 452
e 117 453
e 153 454
e 314 455
e 285 456
e 129 456
e 456 457
e 458 459
e 460 461
e 460 462
e 460 463
e 460 464
e 15 465
e 466 467
e 466 468
e 466 469
e 89 470
e 191 470
e 471 472
e 471 473
e 471 474
e 19 475
e 476 477
e 345 478
e 479 480
e 479 481
e 149 479
e 17 482
e 387 483
e 62 484
e 211 484
e 436 484
e 123 485
e 485 486
e 487 488
e 314 489
e 110 489
e 489 490
e 489 491
e 489 492
e 15 493
e 15 494
e 167 171
e 167 172
e 167 173
e 167 175
e 495 496
e 17 497
e 498 499
e 500 501
e 500 502
e 96 503
e 96 504
e 81 96
e 96 505
e 153 506
e 272 507
e 268 269
e 343 508
e 15 509
e 126 217
e 331 488
e 488 510
e 269 488
e 488 511
e 488 512
e 488 513
e 488 514
e 488 515
e 488 516
e 296 517
e 162 517
e 15 518
e 519 520
e 134 519
e 519 521
e 519 522
e 523 524
e 523 525
e 526 527
e 526 528
e 526 529
e 526 530
e 526 531
e 526 532
e 526 533
e 526 534
e 526 535
e 81 526
e 15 536
e 445 537
e 445 538
e 445 539
e 445 540
e 289 541
e 289 447
e 289 542
e 289 543
e 77 289
e 289 338
e 544 545
e 428 431
e 428 546
e 428 547
e 404 548
e 217 549
e 38 217
e 217 532
e 217 550
e 65 217
e 80 551
e 552 553
e 118 380
e 380 554
e 297 555
e 555 556
e 299 549
e 299 557
e 299 558
e 299 559
e 299 560
e 299 561
e 299 469
e 299 562
e 299 563
e 17 564
e 565 566
e 15 567
e 568 569
e 568 570
e 571 572
e 62 573
e 17 574
e 15 575
e 302 576
e 15 577
e 12 578
e 579 580
e 250 324
e 153 581
e 582 583
e 534 582
e 535 582
e 123 584
e 585 586
e 363 585
e 153 587
e 75 588
e 589 590
e 525 591
e 221 592
e 222 592
e 592 593
e 334 592
e 594 595
e 15 596
e 17 597
e 598 599
e 239 598
e 600 601
e 600 602
e 185 603
e 218 604
e 218 605
e 218 328
e 218 606
e 218 607
e 218 608
e 461 463
e 134 520
e 520 521
e 162 520
e 520 609
e 520 522
e 528 550
e 65 528
e 528 610
e 528 611
e 24 528
e 15 612
e 613 614
e 155 615
e 155 616
e 155 617
e 155 618
e 155 619
e 620 621
e 156 622
e 123 622
e 285 623
e 17 624
e 15 625
e 70 626
e 62 627
e 211 627
e 436 627
e 628 629
e 630 631
e 331 632
e 142 331
e 633 634
e 635 636
e 65 637
e 70 637
e 15 638
e 639 640
e 640 641
e 642 643
e 642 644
e 275 645
e 563 645
e 646 647
e 117 646
e 314 315
e 314 648
e 314 490
e 196 314
e 314 502
e 314 649
e 314 650
e 314 651
e 314 652
e 269 541
e 447 541
e 541 542
e 541 653
e 334 541
e 76 541
e 77 541
e 553 654
e 201 553
e 105 655
e 17 656
e 15 657
e 72 658
e 294 659
e 248 530
e 248 660
e 81 248
e 248 661
e 184 248
e 185 248
e 248 662
e 24 248
e 83 156
e 83 486
e 80 663
e 505 663
e 6 663
e 7 663
e 15 664
e 665 666
e 667 668
e 89 669
e 558 670
e 530 531
e 530 583
e 530 534
e 530 535
e 530 671
e 81 530
e 530 672
e 673 674
e 15 675
e 676 677
e 676 678
e 17 679
e 285 680
e 62 681
e 211 681
e 640 682
e 345 640
e 640 674
e 640 683
e 640 684
e 640 685
e 70 686
e 17 687
e 634 688
e 689 690
e 114 689
e 211 691
e 12 692
e 15 693
e 15 694
e 194 196
e 62 695
e 211 695
e 436 695
e 696 697
e 117 698
e 699 700
e 17 701
e 100 702
e 702 703
e 704 705
e 15 706
e 480 707
e 135 480
e 480 481
e 189 480
e 480 708
e 480 709
e 345 710
e 62 711
e 712 713
e 117 712
e 62 714
e 250 715
e 211 715
e 436 715
e 716 717
e 525 718
e 429 719
e 719 720
e 462 721
e 294 722
e 409 723
e 138 723
e 280 723
e 724 725
e 294 726
e 727 728
e 727 729
e 727 730
e 244 731
e 15 732
e 80 733
e 678 734
e 294 735
e 117 736
e 62 737
e 250 738
e 739 740
e 15 741
e 19 742
e 19 503
e 19 743
e 19 41
e 19 744
e 19 394
e 19 745
e 19 746
e 79 747
e 748 749
e 750 751
e 74 76
e 74 211
e 74 77
e 328 604
e 604 752
e 149 753
e 754 755
e 123 756
e 549 757
e 549 758
e 549 759
e 549 760
e 549 761
e 549 762
e 763 764
e 674 765
e 125 766
e 429 767
e 429 768
e 294 769
e 486 769
e 62 770
e 770 771
e 459 462
e 772 773
e 772 774
e 772 775
e 345 776
e 84 89
e 84 294
e 84 156
e 84 486
e 117 777
e 580 778
e 17 779
e 17 780
e 17 781
e 17 782
e 17 783
e 17 784
e 17 785
e 17 786
e 17 787
e 17 788
e 17 789
e 17 790
e 17 791
e 17 792
e 17 793
e 17 794
e 17 795
e 17 796
e 17 797
e 17 798
e 17 799
e 17 800
e 17 801
e 17 802
e 17 803
e 17 804
e 17 805
e 17 806
e 17 807
e 17 808
e 17 809
e 17 810
e 17 811
e 17 812
e 17 813
e 17 814
e 17 815
e 17 816
e 17 817
e 17 818
e 17 819
e 17 820
e 17 821
e 17 822
e 17 823
e 17 824
e 17 825
e 17 826
e 17 827
e 17 828
e 385 829
e 829 830
e 829 831
e 525 832
e 833 834
e 775 835
e 117 836
e 317 318
e 317 837
e 317 319
e 779 838
e 125 839
e 236 840
e 56 841
e 56 842
e 843 844
e 845 846
e 752 847
e 15 848
e 849 850
e 851 852
e 853 854
e 853 855
e 15 856
e 857 858
e 431 546
e 431 547
e 15 859
e 15 860
e 861 862
e 156 861
e 15 863
e 15 864
e 117 865
e 866 867
e 521 868
e 294 869
e 870 871
e 38 531
e 392 531
e 531 583
e 24 531
e 117 872
e 38 873
e 38 583
e 294 874
e 12 875
e 269 876
e 269 524
e 269 653
e 269 877
e 65 269
e 269 878
e 80 879
e 80 232
e 80 747
e 80 100
e 80 129
e 80 880
e 80 184
e 80 881
e 80 882
e 108 883
e 110 884
e 532 885
e 81 532
e 110 879
e 159 879
e 62 886
e 211 886
e 436 886
e 887 888
e 651 889
e 840 877
e 65 840
e 15 890
e 398 755
e 196 891
e 652 891
e 168 171
e 168 173
e 168 175
e 169 170
e 169 171
e 169 173
e 169 174
e 169 175
e 169 176
e 538 892
e 204 892
e 893 894
e 700 893
e 15 895
e 15 896
e 720 767
e 125 897
e 125 898
e 125 707
e 125 899
e 125 900
e 125 901
e 125 705
e 125 902
e 125 903
e 125 904
e 125 837
e 125 905
e 125 906
e 538 755
e 538 907
e 448 538
e 538 908
e 123 909
e 275 910
e 910 911
e 332 333
e 332 334
e 332 335
e 332 336
e 332 337
e 244 912
e 913 914
e 161 162
e 524 915
e 915 916
e 469 915
e 915 917
e 62 918
e 211 918
e 100 605
e 605 919
e 294 920
e 65 550
e 15 921
e 830 831
e 830 922
e 755 923
e 328 924
e 328 877
e 606 654
e 15 925
e 926 927
e 911 926
e 15 928
e 85 123
e 15 929
e 294 930
e 156 930
e 123 930
e 244 931
e 244 559
e 244 932
e 244 933
e 934 935
e 459 934
e 580 936
e 752 937
e 938 939
e 156 940
e 123 941
e 740 941
e 15 942
e 116 943
e 943 944
e 118 943
e 134 135
e 134 136
e 134 137
e 134 138
e 134 280
e 945 946
e 945 947
e 425 945
e 525 948
e 15 949
e 135 950
e 404 405
e 404 406
e 404 407
e 117 951
e 952 953
e 70 954
e 62 955
e 436 955
e 717 758
e 717 956
e 717 957
e 147 305
e 147 707
e 147 958
e 147 189
e 77 147
e 147 959
e 147 850
e 416 419
e 416 420
e 110 960
e 110 961
e 110 962
e 110 516
e 963 964
e 965 966
e 599 967
e 599 968
e 599 969
e 232 599
e 12 970
e 275 927
e 927 971
e 972 973
e 294 974
e 86 123
e 15 975
e 117 976
e 977 978
e 540 977
e 979 980
e 979 981
e 700 979
e 982 983
e 982 984
e 116 118
e 985 986
e 104 106
e 117 987
e 250 446
e 123 988
e 764 989
e 294 990
e 525 991
e 62 992
e 78 993
e 191 994
e 15 995
e 117 996
e 232 997
e 998 999
e 123 1000
e 142 1001
e 1002 1003
e 771 1004
e 1005 1006
e 674 1007
e 876 1007
e 1007 1008
e 62 1009
e 899 1010
e 232 1011
e 345 1012
e 345 653
e 345 1013
e 345 1014
e 345 1015
e 345 1016
e 345 1017
e 345 842
e 135 674
e 15 1018
e 697 1019
e 121 1020
e 121 745
e 121 201
e 501 1021
e 1022 1023
e 1022 1024
e 296 1025
e 123 1026
e 505 986
e 15 1027
e 123 1028
e 153 1029
e 417 419
e 417 420
e 395 473
e 999 1030
e 999 1031
e 999 1032
e 15 1033
e 894 1023
e 15 1034
e 185 1035
e 720 768
e 15 1036
e 501 502
e 1037 1038
e 1037 1039
e 1040 1041
e 195 1040
e 196 1040
e 15 1042
e 221 593
e 12 304
e 304 305
e 13 304
e 304 959
e 123 1043
e 75 211
e 75 77
e 558 1044
e 12 1045
e 12 1046
e 12 1047
e 250 1048
e 525 616
e 305 306
e 305 307
e 305 308
e 983 1049
e 983 1050
e 204 1051
e 204 1038
e 546 1052
e 250 1052
e 15 1053
e 1054 1055
e 222 728
e 728 730
e 307 707
e 464 1056
e 525 1057
e 1057 1058
e 516 1057
e 292 1059
e 569 1060
e 135 149
e 135 136
e 62 1061
e 211 1061
e 15 1062
e 297 556
e 1063 1064
e 1063 1065
e 195 1041
e 481 1041
e 196 1041
e 580 1066
e 418 420
e 558 1067
e 558 1068
e 558 1069
e 558 1070
e 558 1071
e 123 1072
e 260 743
e 211 743
e 436 743
e 240 1073
e 41 583
e 1031 1074
e 129 1075
e 153 1076
e 70 1077
e 41 939
e 15 1078
e 621 1079
e 621 1080
e 123 1081
e 189 306
e 306 1082
e 306 959
e 764 1083
e 232 1084
e 607 1085
e 62 1086
e 211 1086
e 834 1087
e 13 1088
e 13 276
e 13 652
e 13 138
e 62 1089
e 211 1089
e 196 1090
e 1091 1092
e 1091 1093
e 237 241
e 907 1094
e 907 1038
e 15 1095
e 62 1096
e 15 1097
e 78 1098
e 566 1099
e 156 617
e 1100 1101
e 1100 1102
e 260 1103
e 260 343
e 191 260
e 1104 1105
e 70 876
e 1106 1107
e 222 1106
e 333 337
e 611 1108
e 15 1109
e 447 543
e 338 447
e 1110 1111
e 1112 1113
e 201 1114
e 195 196
e 117 1115
e 524 916
e 469 524
e 524 858
e 123 1116
e 62 1117
e 307 542
e 163 542
e 382 1118
e 117 671
e 671 1119
e 361 671
e 307 958
e 189 307
e 307 1120
e 307 1121
e 307 959
e 307 850
e 607 1122
e 191 1123
e 15 1124
e 419 1125
e 59 1125
e 292 1126
e 292 1127
e 292 1128
e 292 361
e 292 1129
e 292 1130
e 117 602
e 142 602
e 149 481
e 448 481
e 57 393
e 393 1131
e 407 964
e 15 1132
e 77 653
e 590 1133
e 1134 1135
e 123 1136
e 464 1137
e 1065 1138
e 1020 1139
e 1135 1140
e 256 678
e 15 1141
e 62 1142
e 211 1142
e 15 1143
e 123 1144
e 319 1144
e 186 1145
e 580 1146
e 196 652
e 189 1147
e 153 1148
e 153 1149
e 153 1150
e 153 1151
e 153 1152
e 425 1153
e 425 426
e 285 1154
e 222 593
e 77 222
e 334 1155
e 1003 1156
e 88 89
e 88 294
e 88 156
e 88 486
e 525 1157
e 15 1158
e 1159 1160
e 89 590
e 89 543
e 89 1161
e 89 1162
e 89 1163
e 89 129
e 89 1164
e 89 837
e 89 1165
e 89 1166
e 15 1167
e 1082 1168
e 1082 1169
e 1065 1170
e 117 1171
e 117 1172
e 117 1173
e 117 1174
e 117 1175
e 117 1176
e 10 117
e 1177 1178
e 1179 1180
e 1181 1182
e 100 1183
e 186 1184
e 1094 1185
e 123 1186
e 172 1187
e 140 1188
e 129 1189
e 607 1190
e 730 1191
e 15 1192
e 62 1193
e 436 1193
e 521 1194
e 15 1195
e 1196 1197
e 1196 1198
e 149 708
e 149 1199
e 149 1200
e 1201 1202
e 15 1203
e 77 502
e 502 905
e 355 1080
e 312 1204
e 250 1205
e 1198 1205
e 334 593
e 123 1206
e 170 171
e 170 172
e 170 173
e 170 174
e 170 175
e 590 1207
e 1127 1128
e 159 1127
e 171 173
e 171 174
e 171 175
e 171 176
e 15 1208
e 426 1153
e 334 337
e 15 1209
e 156 1210
e 123 1211
e 24 1212
e 24 1213
e 191 1214
e 774 775
e 294 1215
e 357 651
e 137 357
e 1008 1031
e 1031 1216
e 52 53
e 294 1217
e 15 1218
e 172 173
e 172 174
e 172 175
e 745 1020
e 1020 1219
e 156 1220
e 140 294
e 294 1221
e 294 1163
e 294 1222
e 294 1223
e 294 1224
e 294 1166
e 771 1225
e 15 1226
e 15 1227
e 156 543
e 191 1228
e 15 1229
e 15 1230
e 877 924
e 62 924
e 15 1231
e 1197 1198
e 201 1232
e 302 1233
e 105 1234
e 105 106
e 678 1235
e 678 1236
e 521 1237
e 521 522
e 15 1238
e 1239 1240
e 24 1241
e 24 1242
e 62 1243
e 211 1244
e 250 1245
e 15 1246
e 15 1247
e 15 1248
e 15 1249
e 15 1250
e 15 1251
e 15 1252
e 15 1253
e 15 1254
e 15 1255
e 15 1256
e 15 1257
e 15 1258
e 15 1259
e 15 1260
e 15 1261
e 15 1262
e 15 1263
e 15 1264
e 15 1265
e 15 1266
e 15 1267
e 15 1268
e 15 1269
e 15 1270
e 15 1271
e 15 1272
e 15 1273
e 15 1274
e 15 1275
e 15 1276
e 15 1277
e 15 1278
e 15 1279
e 15 1280
e 15 1281
e 15 1282
e 15 1283
e 15 1284
e 15 1285
e 15 1286
e 15 1287
e 15 1288
e 15 1289
e 15 1290
e 15 1291
e 15 1292
e 15 1293
e 15 1294
e 1119 1295
e 546 1296
e 123 1297
e 405 406
e 173 174
e 173 175
e 173 176
e 275 911
e 123 1298
e 123 1299
e 1113 1300
e 62 1301
e 211 1301
e 436 1301
e 250 1162
e 123 1162
e 140 1302
e 556 1303
e 136 137
e 136 138
e 335 337
e 1237 1304
e 984 1049
e 238 241
e 231 232
e 185 231
e 463 464
e 62 1305
e 62 1306
e 62 1307
e 62 1308
e 62 1309
e 62 325
e 62 1310
e 62 1311
e 62 1312
e 62 1313
e 62 1314
e 62 1315
e 62 1316
e 62 1317
e 62 1318
e 62 1319
e 62 1320
e 62 933
e 62 1321
e 62 1322
e 211 1305
e 436 1305
e 185 1323
e 65 1324
e 186 232
e 232 1325
e 232 1326
e 8 232
e 211 1306
e 76 211
e 76 77
e 186 1327
e 186 1328
e 6 186
e 7 186
e 186 1329
e 8 186
e 1330 1331
e 491 492
e 491 1332
e 138 1333
e 280 1333
e 469 1334
e 201 1335
e 250 325
e 58 59
e 58 60
e 78 1336
e 610 1324
e 24 1324
e 436 1310
e 250 1216
e 150 1337
e 174 175
e 174 176
e 1121 1338
e 881 1325
e 127 1339
e 1339 1340
e 77 651
e 24 81
e 191 201
e 984 1341
e 239 361
e 211 1312
e 1342 1343
e 1342 1344
e 123 1163
e 1111 1345
e 159 469
e 211 1313
e 211 1314
e 211 1318
e 211 1337
e 211 1320
e 336 337
e 1346 1347
e 285 1348
e 285 1349
e 285 1350
e 285 457
e 280 1351
e 280 683
e 459 1352
e 1353 1354
e 70 1355
e 70 1356
e 70 1008
e 70 1216
e 123 1357
e 1065 1358
e 156 505
e 505 610
e 505 1332
e 469 1359
e 469 1360
e 1361 1362
e 1363 1364
e 156 1365
e 156 1366
e 156 1340
e 156 1166
e 191 514
e 191 239
e 26 27
e 123 1367
e 191 1131
e 7 608
e 419 420
e 59 60
e 1178 1368
e 280 1369
e 191 1370
e 191 1371
e 118 1372
e 24 672
e 1373 1374
e 1374 1375
e 123 1093
e 90 123
e 123 1352
e 123 1376
e 740 858
e 137 138
e 137 280
e 175 176
e 240 241
e 563 1377
e 1303 1378
e 457 1348
e 858 1379
e 318 319
e 486 1380
e 27 28
e 27 29
e 1343 1344
e 28 1381
e 241 242
e 142 1382
e 382 703
e 29 1381
e 432 547
e 10 1383
e 608 1384
e 1216 1385
e 142 1386
e 138 280
e 436 1320
e 464 1387
e 280 1381
e 1202 1381
e 984 1050
