biology/CliquerOutput/bio-CE-LC.out
size=7, weight=7:   166 169 171 173 174 175 176
